     Program PWSCF v.7.1 starts on 12Oct2022 at 13:58:44

     Reading input from test_Cu_CO2.pwi
Warning: card &CELL ignored
Warning: card / ignored

     Current dimensions of program PWSCF are:
     Max number of different atomic species (ntypx) = 10
     Max number of k-points (npk) =  40000
     Max angular momentum in pseudopotentials (lmaxx) =  4

     IMPORTANT: XC functional enforced from input :
     Exchange-correlation= BEEF-VDW
                           (   1   4  43  14   2   0   0)
     Any further DFT definition will be discarded
     Please, verify this is what you really want

     Message from routine setup:
     using ibrav=0 with symmetry is DISCOURAGED, use correct ibrav instead

     R & G space division:  proc/nbgrp/npool/nimage =       2
     Subspace diagonalization in iterative solution of the eigenvalue problem:
     a serial algorithm will be used

     Using Slab Decomposition

     bravais-lattice index     =            0
     lattice parameter (alat)  =      14.3146  a.u.
     unit-cell volume          =   10101.6116 (a.u.)^3
     number of atoms/cell      =           30
     number of atomic types    =            3
     number of electrons       =       529.00
     number of Kohn-Sham states=          318
     kinetic-energy cutoff     =      60.0000  Ry
     charge density cutoff     =     240.0000  Ry
     scf convergence threshold =      1.0E-08
     mixing beta               =       0.7000
     number of iterations used =            8  local-TF  mixing
     Exchange-correlation= BEEF-VDW
                           (   1   4  43  14   2   0   0)

     celldm(1)=  14.314606  celldm(2)=   0.000000  celldm(3)=   0.000000
     celldm(4)=   0.000000  celldm(5)=   0.000000  celldm(6)=   0.000000

     crystal axes: (cart. coord. in units of alat)
               a(1) = (   1.000000   0.000000   0.000000 )
               a(2) = (   0.500000   0.866025   0.000000 )
               a(3) = (   0.000000   0.000000   3.976691 )

     reciprocal axes: (cart. coord. in units 2 pi/alat)
               b(1) = (  1.000000 -0.577350  0.000000 )
               b(2) = (  0.000000  1.154701  0.000000 )
               b(3) = (  0.000000  0.000000  0.251465 )

     PseudoPot. # 1 for Cu read from file:
     /home/rayhe/espresso/pseudo/Cu_ONCV_PBE-1.2.upf
     MD5 check sum: 80213f8971cc881d9b4c24e0a73cd931
     Pseudo is Norm-conserving, Zval = 19.0
     Generated using ONCVPSP code by D. R. Hamann
     Using radial grid of  602 points,  6 beta functions with:
                l(1) =   0
                l(2) =   0
                l(3) =   1
                l(4) =   1
                l(5) =   2
                l(6) =   2

     PseudoPot. # 2 for C  read from file:
     /home/rayhe/espresso/pseudo/C_ONCV_PBE-1.2.upf
     MD5 check sum: 1a5f83a7b1f58d24996abe00ed223ac6
     Pseudo is Norm-conserving, Zval =  4.0
     Generated using ONCVPSP code by D. R. Hamann
     Using radial grid of  602 points,  4 beta functions with:
                l(1) =   0
                l(2) =   0
                l(3) =   1
                l(4) =   1

     PseudoPot. # 3 for O  read from file:
     /home/rayhe/espresso/pseudo/O_ONCV_PBE-1.2.upf
     MD5 check sum: e36c48deb68f4e355fffe4602be2c42c
     Pseudo is Norm-conserving, Zval =  6.0
     Generated using ONCVPSP code by D. R. Hamann
     Using radial grid of  602 points,  4 beta functions with:
                l(1) =   0
                l(2) =   0
                l(3) =   1
                l(4) =   1

     atomic species   valence    mass     pseudopotential
        Cu            19.00    63.54600     Cu( 1.00)
        C              4.00    12.01100     C ( 1.00)
        O              6.00    15.99900     O ( 1.00)

      2 Sym. Ops. (no inversion) found

                                    s                        frac. trans.

      isym =  1     identity

 cryst.   s( 1) = (     1          0          0      )
                  (     0          1          0      )
                  (     0          0          1      )

 cart.    s( 1) = (  1.0000000  0.0000000  0.0000000 )
                  (  0.0000000  1.0000000  0.0000000 )
                  (  0.0000000  0.0000000  1.0000000 )

      isym =  2     inv. 180 deg rotation - cart. axis [1,0,0]

 cryst.   s( 2) = (    -1          0          0      )
                  (    -1          1          0      )
                  (     0          0          1      )

 cart.    s( 2) = ( -1.0000000  0.0000000  0.0000000 )
                  (  0.0000000  1.0000000  0.0000000 )
                  (  0.0000000  0.0000000  1.0000000 )

   Cartesian axes

     site n.     atom                  positions (alat units)
         1           Cu  tau(   1) = (   0.1666667   0.0962250   1.7161799  )
         2           Cu  tau(   2) = (   0.5000000   0.0962250   1.7161799  )
         3           Cu  tau(   3) = (   0.8333333   0.0962250   1.7161799  )
         4           Cu  tau(   4) = (   0.3333333   0.3849002   1.7161799  )
         5           Cu  tau(   5) = (   0.6666667   0.3849002   1.7161799  )
         6           Cu  tau(   6) = (   1.0000000   0.3849002   1.7161799  )
         7           Cu  tau(   7) = (   0.5000000   0.6735753   1.7161799  )
         8           Cu  tau(   8) = (   0.8333333   0.6735753   1.7161799  )
         9           Cu  tau(   9) = (   1.1666667   0.6735753   1.7161799  )
        10           Cu  tau(  10) = (  -0.0000000   0.1924501   1.9883455  )
        11           Cu  tau(  11) = (   0.3333333   0.1924501   1.9883455  )
        12           Cu  tau(  12) = (   0.6666667   0.1924501   1.9883455  )
        13           Cu  tau(  13) = (   0.1666667   0.4811252   1.9883455  )
        14           Cu  tau(  14) = (   0.5000000   0.4811252   1.9883455  )
        15           Cu  tau(  15) = (   0.8333333   0.4811252   1.9883455  )
        16           Cu  tau(  16) = (   0.3333333   0.7698004   1.9883455  )
        17           Cu  tau(  17) = (   0.6666667   0.7698004   1.9883455  )
        18           Cu  tau(  18) = (   1.0000000   0.7698004   1.9883455  )
        19           Cu  tau(  19) = (   0.0000000   0.0000000   2.2718273  )
        20           Cu  tau(  20) = (   0.3333392   0.0000067   2.2717540  )
        21           Cu  tau(  21) = (   0.6666608   0.0000067   2.2717540  )
        22           Cu  tau(  22) = (   0.1666754   0.2886769   2.2717540  )
        23           Cu  tau(  23) = (   0.5000000   0.2886751   2.2718230  )
        24           Cu  tau(  24) = (   0.8333246   0.2886769   2.2717540  )
        25           Cu  tau(  25) = (   0.3333362   0.5773418   2.2717540  )
        26           Cu  tau(  26) = (   0.6666638   0.5773418   2.2717540  )
        27           Cu  tau(  27) = (   1.0000000   0.5773503   2.2717668  )
        28           C   tau(  28) = (   0.0000000   0.0000000   2.7338758  )
        29           O   tau(  29) = (   0.1532169   0.0000000   2.7338758  )
        30           O   tau(  30) = (  -0.1532169   0.0000000   2.7338758  )

   Crystallographic axes

     site n.     atom                  positions (cryst. coord.)
         1           Cu  tau(   1) = (  0.1111111  0.1111111  0.4315598  )
         2           Cu  tau(   2) = (  0.4444444  0.1111111  0.4315598  )
         3           Cu  tau(   3) = (  0.7777778  0.1111111  0.4315598  )
         4           Cu  tau(   4) = (  0.1111111  0.4444444  0.4315598  )
         5           Cu  tau(   5) = (  0.4444444  0.4444444  0.4315598  )
         6           Cu  tau(   6) = (  0.7777778  0.4444444  0.4315598  )
         7           Cu  tau(   7) = (  0.1111111  0.7777778  0.4315598  )
         8           Cu  tau(   8) = (  0.4444444  0.7777778  0.4315598  )
         9           Cu  tau(   9) = (  0.7777778  0.7777778  0.4315598  )
        10           Cu  tau(  10) = ( -0.1111111  0.2222222  0.5000000  )
        11           Cu  tau(  11) = (  0.2222222  0.2222222  0.5000000  )
        12           Cu  tau(  12) = (  0.5555556  0.2222222  0.5000000  )
        13           Cu  tau(  13) = ( -0.1111111  0.5555556  0.5000000  )
        14           Cu  tau(  14) = (  0.2222222  0.5555556  0.5000000  )
        15           Cu  tau(  15) = (  0.5555556  0.5555556  0.5000000  )
        16           Cu  tau(  16) = ( -0.1111111  0.8888889  0.5000000  )
        17           Cu  tau(  17) = (  0.2222222  0.8888889  0.5000000  )
        18           Cu  tau(  18) = (  0.5555556  0.8888889  0.5000000  )
        19           Cu  tau(  19) = (  0.0000000  0.0000000  0.5712859  )
        20           Cu  tau(  20) = (  0.3333354  0.0000077  0.5712674  )
        21           Cu  tau(  21) = (  0.6666569  0.0000077  0.5712674  )
        22           Cu  tau(  22) = (  0.0000077  0.3333354  0.5712674  )
        23           Cu  tau(  23) = (  0.3333333  0.3333333  0.5712848  )
        24           Cu  tau(  24) = (  0.6666569  0.3333354  0.5712674  )
        25           Cu  tau(  25) = (  0.0000077  0.6666569  0.5712674  )
        26           Cu  tau(  26) = (  0.3333354  0.6666569  0.5712674  )
        27           Cu  tau(  27) = (  0.6666667  0.6666667  0.5712706  )
        28           C   tau(  28) = (  0.0000000  0.0000000  0.6874750  )
        29           O   tau(  29) = (  0.1532169  0.0000000  0.6874750  )
        30           O   tau(  30) = ( -0.1532169  0.0000000  0.6874750  )

     number of k points=     7  Marzari-Vanderbilt smearing, width (Ry)=  0.0100
                       cart. coord. in units 2pi/alat
        k(    1) = (   0.0000000   0.0000000   0.0000000), wk =   0.1250000
        k(    2) = (   0.0000000   0.2886751   0.0000000), wk =   0.2500000
        k(    3) = (   0.0000000  -0.5773503   0.0000000), wk =   0.1250000
        k(    4) = (   0.2500000  -0.7216878   0.0000000), wk =   0.5000000
        k(    5) = (  -0.2500000   0.1443376   0.0000000), wk =   0.5000000
        k(    6) = (   0.5000000  -0.2886751   0.0000000), wk =   0.2500000
        k(    7) = (  -0.5000000  -0.5773503   0.0000000), wk =   0.2500000

                       cryst. coord.
        k(    1) = (   0.0000000   0.0000000   0.0000000), wk =   0.1250000
        k(    2) = (   0.0000000   0.2500000   0.0000000), wk =   0.2500000
        k(    3) = (   0.0000000  -0.5000000   0.0000000), wk =   0.1250000
        k(    4) = (   0.2500000  -0.5000000   0.0000000), wk =   0.5000000
        k(    5) = (  -0.2500000   0.0000000   0.0000000), wk =   0.5000000
        k(    6) = (   0.5000000   0.0000000   0.0000000), wk =   0.2500000
        k(    7) = (  -0.5000000  -0.7500000   0.0000000), wk =   0.2500000

     Initial potential from superposition of free atoms

     starting charge     528.2719, renormalised to     529.0000

     negative rho (up, down):  5.749E-03 0.000E+00

     %%%%%%%%%%%%%%%%%%%%%%%%%%%%%%%%%%%%%%%%%%%%%%%%%%%%%%%%%%%%%%%%%%%%%%%%
     %                                                                      %
     % You are using vdW-DF, which was implemented by the Thonhauser group. %
     % Please cite the following two papers that made this development      %
     % possible and the two reviews that describe the various versions:     %
[...]
     atom    3 type  1   force =     0.00018217    0.00005231   -0.09985323
     atom    4 type  1   force =     0.00009350   -0.00050089   -0.09935557
     atom    5 type  1   force =    -0.00009350   -0.00050089   -0.09935557
     atom    6 type  1   force =     0.00000000    0.00023380   -0.09876204
     atom    7 type  1   force =     0.00000000    0.00051592   -0.09940141
     atom    8 type  1   force =     0.00148668    0.00045955   -0.10079029
     atom    9 type  1   force =    -0.00148668    0.00045955   -0.10079029
     atom   10 type  1   force =     0.00000000    0.00013134    0.00895813
     atom   11 type  1   force =     0.00118336   -0.00094066    0.00824936
     atom   12 type  1   force =    -0.00118336   -0.00094066    0.00824936
     atom   13 type  1   force =    -0.00042425    0.00042487    0.00761572
     atom   14 type  1   force =     0.00000000   -0.00008089    0.00818967
     atom   15 type  1   force =     0.00042425    0.00042487    0.00761572
     atom   16 type  1   force =    -0.00054098    0.00005429    0.00841795
     atom   17 type  1   force =     0.00054098    0.00005429    0.00841795
     atom   18 type  1   force =     0.00000000    0.00087826    0.00975224
     atom   19 type  1   force =     0.00000000   -0.00004993    0.09424854
     atom   20 type  1   force =    -0.00180843    0.00000805    0.10106231
     atom   21 type  1   force =     0.00180843    0.00000805    0.10106231
     atom   22 type  1   force =     0.00237758    0.00041103    0.08928728
     atom   23 type  1   force =     0.00000000   -0.00039083    0.09250872
     atom   24 type  1   force =    -0.00237758    0.00041103    0.08928728
     atom   25 type  1   force =    -0.00224895   -0.00045330    0.08929238
     atom   26 type  1   force =     0.00224895   -0.00045330    0.08929238
     atom   27 type  1   force =     0.00000000    0.00048305    0.09243913
     atom   28 type  2   force =     0.00000000    0.00000149   -0.00003586
     atom   29 type  3   force =    -3.11380582    0.00002220    0.00886441
     atom   30 type  3   force =     3.11380582    0.00002220    0.00886441
     The ionic contribution  to forces
     atom    1 type  1   force =     0.02511188    0.02008536 -373.10849065
     atom    2 type  1   force =     0.00000000    0.01124703 -373.05790042
     atom    3 type  1   force =    -0.02511188    0.02008536 -373.10849065
     atom    4 type  1   force =     0.00500957    0.00008021 -373.04336236
     atom    5 type  1   force =    -0.00500957    0.00008021 -373.04336236
     atom    6 type  1   force =    -0.00000000    0.02635721 -373.05306460
     atom    7 type  1   force =     0.00000000   -0.03755605 -373.10325178
     atom    8 type  1   force =     0.02035915   -0.02018961 -373.06273645
     atom    9 type  1   force =    -0.02035915   -0.02018961 -373.06273645
     atom   10 type  1   force =     0.00000000    0.26978585  -12.76579170
     atom   11 type  1   force =     0.15234425    0.14801468  -12.47349096
     atom   12 type  1   force =    -0.15234425    0.14801468  -12.47349096
     atom   13 type  1   force =    -0.03323661   -0.00270327  -12.34127013
     atom   14 type  1   force =     0.00000000   -0.19404615  -12.40221720
     atom   15 type  1   force =     0.03323661   -0.00270327  -12.34127013
     atom   16 type  1   force =    -0.17835880   -0.14495414  -12.80733928
     atom   17 type  1   force =     0.17835880   -0.14495414  -12.80733928
     atom   18 type  1   force =    -0.00000000   -0.07649868  -12.44269787
     atom   19 type  1   force =    -0.00000000   -0.00000064  341.39006827
     atom   20 type  1   force =     1.60731638   -0.00666752  344.66497239
     atom   21 type  1   force =    -1.60731638   -0.00666752  344.66497239
     atom   22 type  1   force =     0.68221618    1.69749786  345.45623623
     atom   23 type  1   force =     0.00000000    0.38085946  346.79609230
     atom   24 type  1   force =    -0.68221619    1.69749786  345.45623623
     atom   25 type  1   force =    -0.69380572   -1.69078774  345.45626276
     atom   26 type  1   force =     0.69380572   -1.69078774  345.45626276
     atom   27 type  1   force =    -0.00000000   -0.38071763  346.75250218
     atom   28 type  2   force =    -0.00000000   -0.00000001   91.11357865
     atom   29 type  3   force =    12.86941653   -0.00009104  136.64555952
     atom   30 type  3   force =   -12.86941653   -0.00009104  136.64555952
     The local contribution  to forces
     atom    1 type  1   force =    -0.02495603   -0.02013534  373.19139266
     atom    2 type  1   force =     0.00000002   -0.01044974  373.14390615
     atom    3 type  1   force =     0.02495606   -0.02013534  373.19139266
     atom    4 type  1   force =    -0.00512488    0.00045145  373.12571768
     atom    5 type  1   force =     0.00512485    0.00045145  373.12571768
     atom    6 type  1   force =    -0.00000003   -0.02659603  373.13480448
     atom    7 type  1   force =     0.00000002    0.03703864  373.18564407
     atom    8 type  1   force =    -0.02191657    0.01967943  373.14656902
     atom    9 type  1   force =     0.02191658    0.01967943  373.14656902
     atom   10 type  1   force =     0.00000000   -0.26989528   12.77349044
     atom   11 type  1   force =    -0.15356787   -0.14704461   12.48208692
     atom   12 type  1   force =     0.15356784   -0.14704461   12.48208692
     atom   13 type  1   force =     0.03368722    0.00228657   12.35033564
     atom   14 type  1   force =     0.00000002    0.19406621   12.41062766
     atom   15 type  1   force =    -0.03368719    0.00228657   12.35033564
     atom   16 type  1   force =     0.17882297    0.14489594   12.81558098
     atom   17 type  1   force =    -0.17882299    0.14489594   12.81558098
     atom   18 type  1   force =    -0.00000003    0.07556894   12.44997334
     atom   19 type  1   force =    -0.00000000    0.00007555 -341.48977318
     atom   20 type  1   force =    -1.60557861    0.00662814 -344.76741682
     atom   21 type  1   force =     1.60557865    0.00662814 -344.76741682
     atom   22 type  1   force =    -0.68489858   -1.69782593 -345.54700580
     atom   23 type  1   force =     0.00000002   -0.38019940 -346.88994353
     atom   24 type  1   force =     0.68489855   -1.69782593 -345.54700580
     atom   25 type  1   force =     0.69630985    1.69116160 -345.54704595
     atom   26 type  1   force =    -0.69630987    1.69116160 -345.54704595
     atom   27 type  1   force =    -0.00000003    0.37999271 -346.84628201
     atom   28 type  2   force =    -0.00000000   -0.00000346  -91.11198032
     atom   29 type  3   force =    -9.75312969    0.00007763 -136.65403200
     atom   30 type  3   force =     9.75312969    0.00007763 -136.65403200
     The core correction contribution to forces
     atom    1 type  1   force =     0.00000000    0.00000000    0.00000000
     atom    2 type  1   force =     0.00000000    0.00000000    0.00000000
     atom    3 type  1   force =     0.00000000    0.00000000    0.00000000
     atom    4 type  1   force =     0.00000000    0.00000000    0.00000000
     atom    5 type  1   force =     0.00000000    0.00000000    0.00000000
     atom    6 type  1   force =     0.00000000    0.00000000    0.00000000
     atom    7 type  1   force =     0.00000000    0.00000000    0.00000000
     atom    8 type  1   force =     0.00000000    0.00000000    0.00000000
     atom    9 type  1   force =     0.00000000    0.00000000    0.00000000
     atom   10 type  1   force =     0.00000000    0.00000000    0.00000000
     atom   11 type  1   force =     0.00000000    0.00000000    0.00000000
     atom   12 type  1   force =     0.00000000    0.00000000    0.00000000
     atom   13 type  1   force =     0.00000000    0.00000000    0.00000000
     atom   14 type  1   force =     0.00000000    0.00000000    0.00000000
     atom   15 type  1   force =     0.00000000    0.00000000    0.00000000
     atom   16 type  1   force =     0.00000000    0.00000000    0.00000000
     atom   17 type  1   force =     0.00000000    0.00000000    0.00000000
     atom   18 type  1   force =     0.00000000    0.00000000    0.00000000
     atom   19 type  1   force =     0.00000000    0.00000000    0.00000000
     atom   20 type  1   force =     0.00000000    0.00000000    0.00000000
     atom   21 type  1   force =     0.00000000    0.00000000    0.00000000
     atom   22 type  1   force =     0.00000000    0.00000000    0.00000000
     atom   23 type  1   force =     0.00000000    0.00000000    0.00000000
     atom   24 type  1   force =     0.00000000    0.00000000    0.00000000
     atom   25 type  1   force =     0.00000000    0.00000000    0.00000000
     atom   26 type  1   force =     0.00000000    0.00000000    0.00000000
     atom   27 type  1   force =     0.00000000    0.00000000    0.00000000
     atom   28 type  2   force =     0.00000000    0.00000000    0.00000000
     atom   29 type  3   force =     0.00000000    0.00000000    0.00000000
     atom   30 type  3   force =     0.00000000    0.00000000    0.00000000
     The Hubbard contrib.    to forces
     atom    1 type  1   force =     0.00000000    0.00000000    0.00000000
     atom    2 type  1   force =     0.00000000    0.00000000    0.00000000
     atom    3 type  1   force =     0.00000000    0.00000000    0.00000000
     atom    4 type  1   force =     0.00000000    0.00000000    0.00000000
     atom    5 type  1   force =     0.00000000    0.00000000    0.00000000
     atom    6 type  1   force =     0.00000000    0.00000000    0.00000000
     atom    7 type  1   force =     0.00000000    0.00000000    0.00000000
     atom    8 type  1   force =     0.00000000    0.00000000    0.00000000
     atom    9 type  1   force =     0.00000000    0.00000000    0.00000000
     atom   10 type  1   force =     0.00000000    0.00000000    0.00000000
     atom   11 type  1   force =     0.00000000    0.00000000    0.00000000
     atom   12 type  1   force =     0.00000000    0.00000000    0.00000000
     atom   13 type  1   force =     0.00000000    0.00000000    0.00000000
     atom   14 type  1   force =     0.00000000    0.00000000    0.00000000
     atom   15 type  1   force =     0.00000000    0.00000000    0.00000000
     atom   16 type  1   force =     0.00000000    0.00000000    0.00000000
     atom   17 type  1   force =     0.00000000    0.00000000    0.00000000
     atom   18 type  1   force =     0.00000000    0.00000000    0.00000000
     atom   19 type  1   force =     0.00000000    0.00000000    0.00000000
     atom   20 type  1   force =     0.00000000    0.00000000    0.00000000
     atom   21 type  1   force =     0.00000000    0.00000000    0.00000000
     atom   22 type  1   force =     0.00000000    0.00000000    0.00000000
     atom   23 type  1   force =     0.00000000    0.00000000    0.00000000
     atom   24 type  1   force =     0.00000000    0.00000000    0.00000000
     atom   25 type  1   force =     0.00000000    0.00000000    0.00000000
     atom   26 type  1   force =     0.00000000    0.00000000    0.00000000
     atom   27 type  1   force =     0.00000000    0.00000000    0.00000000
     atom   28 type  2   force =     0.00000000    0.00000000    0.00000000
     atom   29 type  3   force =     0.00000000    0.00000000    0.00000000
     atom   30 type  3   force =     0.00000000    0.00000000    0.00000000
     The SCF correction term to forces
     atom    1 type  1   force =     0.00000000   -0.00000000    0.00000000
     atom    2 type  1   force =     0.00000000    0.00000000   -0.00000000
     atom    3 type  1   force =    -0.00000000   -0.00000000    0.00000000
     atom    4 type  1   force =     0.00000000    0.00000000   -0.00000000
     atom    5 type  1   force =    -0.00000000    0.00000000   -0.00000000
     atom    6 type  1   force =     0.00000000   -0.00000000   -0.00000000
     atom    7 type  1   force =    -0.00000000    0.00000000   -0.00000000
     atom    8 type  1   force =    -0.00000000   -0.00000000   -0.00000000
     atom    9 type  1   force =     0.00000000   -0.00000000   -0.00000000
     atom   10 type  1   force =     0.00000000   -0.00000000    0.00000000
     atom   11 type  1   force =     0.00000000   -0.00000000    0.00000000
     atom   12 type  1   force =    -0.00000000   -0.00000000    0.00000000
     atom   13 type  1   force =     0.00000000    0.00000000    0.00000000
     atom   14 type  1   force =     0.00000000   -0.00000000    0.00000000
     atom   15 type  1   force =    -0.00000000    0.00000000    0.00000000
     atom   16 type  1   force =     0.00000000   -0.00000000   -0.00000000
     atom   17 type  1   force =    -0.00000000   -0.00000000   -0.00000000
     atom   18 type  1   force =     0.00000000   -0.00000000    0.00000000
     atom   19 type  1   force =     0.00000018   -0.00002269   -0.00012033
     atom   20 type  1   force =     0.00000310   -0.00002216   -0.00008896
     atom   21 type  1   force =    -0.00000362   -0.00002212   -0.00008947
     atom   22 type  1   force =     0.00002407    0.00001241   -0.00007505
     atom   23 type  1   force =    -0.00000013    0.00002131   -0.00007648
     atom   24 type  1   force =    -0.00002448    0.00001243   -0.00007554
     atom   25 type  1   force =    -0.00000144    0.00001800   -0.00001730
     atom   26 type  1   force =     0.00000038    0.00001897   -0.00001467
     atom   27 type  1   force =     0.00000012    0.00001785   -0.00008091
     atom   28 type  2   force =     0.00000001    0.00000108   -0.00000110
     atom   29 type  3   force =    -0.00006503   -0.00004740   -0.00004219
     atom   30 type  3   force =     0.00006411   -0.00004773   -0.00004398

     Total force =     0.007075     Total SCF correction =     0.000275

     Computing stress (Cartesian axis) and pressure

          total   stress  (Ry/bohr**3)                   (kbar)     P=     -292.25
  -0.00196965   0.00000000   0.00000000         -289.75        0.00        0.00
   0.00000000  -0.00197286   0.00000001            0.00     -290.22        0.00
   0.00000000   0.00000001  -0.00201744            0.00        0.00     -296.78

     kinetic stress (kbar)  44268.09     -0.00      0.00
                               -0.00  44355.85     -0.00
                                0.00     -0.00  44535.81

     local   stress (kbar)**********      0.00      0.00
                                0.00**********      0.03
                                0.00      0.031676143.75

     nonloc. stress (kbar) -32891.22      0.00      0.00
                                0.00 -32897.96      0.00
                                0.00      0.00 -33006.82

     hartree stress (kbar) 842946.90      0.00     -0.00
                                0.00 842532.34     -0.01
                               -0.00     -0.01-813659.69

     exc-cor stress (kbar)  -4624.05      0.00     -0.00
                                0.00  -4628.75     -0.00
                               -0.00     -0.00  -4639.87

     corecor stress (kbar)      0.00      0.00      0.00
                                0.00      0.00      0.00
                                0.00      0.00      0.00

     ewald   stress (kbar) 806405.62     -0.00     -0.00
                               -0.00 805530.23     -0.01
                               -0.00     -0.01-869713.67

     hubbard stress (kbar)      0.00      0.00      0.00
                                0.00      0.00      0.00
                                0.00      0.00      0.00

     DFT-D   stress (kbar)      0.00      0.00      0.00
                                0.00      0.00      0.00
                                0.00      0.00      0.00

     XDM     stress (kbar)      0.00      0.00      0.00
                                0.00      0.00      0.00
                                0.00      0.00      0.00

     dft-nl  stress (kbar)     36.73     -0.00      0.00
                               -0.00     37.43      0.00
                                0.00      0.00     43.72

     TS-vdW  stress (kbar)      0.00      0.00      0.00
                                0.00      0.00      0.00
                                0.00      0.00      0.00

     MDB     stress (kbar)      0.00      0.00      0.00
                                0.00      0.00      0.00
                                0.00      0.00      0.00

     3D-RISM stress (kbar)      0.00      0.00      0.00
                                0.00      0.00      0.00
                                0.00      0.00      0.00

     Writing all to output data dir ./Cu_CO2.save/

     General routines

     Parallel routines

   This run was terminated on:  17:26:45  12Oct2022

   JOB DONE.